% seed = 4365189

mint = 41;
% maxt = 106;

nActs = 22;
dur = [0,2,2,1,1,5,3,7,10,10,9,7,1,5,2,1,10,7,9,10,4,0];

nSkills = 4;
sreq = [| 0,0,0,0,
	| 3,1,0,2,
	| 1,2,1,1,
	| 1,2,1,1,
	| 1,0,3,0,
	| 0,1,2,3,
	| 1,2,0,2,
	| 1,2,3,2,
	| 1,3,2,2,
	| 1,0,3,2,
	| 3,2,3,1,
	| 1,1,2,2,
	| 3,0,3,0,
	| 2,2,0,3,
	| 2,2,0,1,
	| 1,2,0,2,
	| 3,1,0,0,
	| 3,1,2,1,
	| 1,2,2,1,
	| 0,1,3,2,
	| 3,1,0,2,
	| 0,0,0,0, |];

nResources = 25;
mastery = [| false,true,true,true,
	| true,true,false,false,
	| true,true,false,true,
	| false,true,false,true,
	| true,false,false,true,
	| false,false,false,true,
	| true,true,false,true,
	| false,false,true,false,
	| false,false,true,true,
	| true,false,true,true,
	| false,false,true,false,
	| false,true,false,true,
	| false,false,true,false,
	| true,true,false,false,
	| false,false,true,false,
	| true,true,false,true,
	| true,true,false,true,
	| false,false,true,false,
	| true,false,false,false,
	| true,true,false,true,
	| false,true,true,false,
	| false,true,false,false,
	| true,false,false,false,
	| false,true,true,false,
	| true,false,false,true, |];

nPrecs = 31;
pred = [1,1,1,2,2,3,4,5,5,6,6,7,8,8,8,9,10,11,12,12,12,13,14,15,16,16,17,18,19,20,21];
succ = [2,3,4,19,5,14,6,15,7,10,8,10,9,12,13,16,11,18,18,20,15,17,15,21,19,21,21,19,22,22,22];

nUnrels = 109;
unpred = [2,2,2,2,2,2,2,2,2,2,2,3,3,3,3,3,3,3,3,3,3,3,3,3,3,3,4,4,4,5,5,5,5,5,5,5,5,5,6,6,7,7,7,7,7,7,7,7,7,7,8,8,8,9,9,9,9,9,9,9,9,9,10,10,10,10,10,10,10,10,11,11,11,11,11,11,11,11,12,12,12,12,13,13,13,13,13,13,14,14,14,14,14,15,15,15,15,15,16,16,16,17,17,17,18,18,19,19,20];
unsucc = [3,4,6,8,9,12,13,14,16,17,20,4,5,6,7,8,9,10,11,12,13,16,17,18,19,20,5,7,14,6,8,9,12,13,14,16,17,20,7,14,8,9,12,13,14,15,16,17,20,21,10,11,14,10,11,12,13,14,15,17,18,20,12,13,14,15,16,17,20,21,12,13,14,15,16,17,20,21,13,14,16,17,14,15,16,18,19,20,16,17,18,19,20,16,17,18,19,20,17,18,20,18,19,20,20,21,20,21,21];

USEFUL_RES = [{},
	{1,2,3,4,5,6,7,9,10,12,14,16,17,19,20,21,22,23,24,25},
	{1,2,3,4,5,6,7,8,9,10,11,12,13,14,15,16,17,18,19,20,21,22,23,24,25},
	{1,2,3,4,5,6,7,8,9,10,11,12,13,14,15,16,17,18,19,20,21,22,23,24,25},
	{1,2,3,5,7,8,9,10,11,13,14,15,16,17,18,19,20,21,23,24,25},
	{1,2,3,4,5,6,7,8,9,10,11,12,13,14,15,16,17,18,20,21,22,24,25},
	{1,2,3,4,5,6,7,9,10,12,14,16,17,19,20,21,22,23,24,25},
	{1,2,3,4,5,6,7,8,9,10,11,12,13,14,15,16,17,18,19,20,21,22,23,24,25},
	{1,2,3,4,5,6,7,8,9,10,11,12,13,14,15,16,17,18,19,20,21,22,23,24,25},
	{1,2,3,4,5,6,7,8,9,10,11,12,13,14,15,16,17,18,19,20,21,23,24,25},
	{1,2,3,4,5,6,7,8,9,10,11,12,13,14,15,16,17,18,19,20,21,22,23,24,25},
	{1,2,3,4,5,6,7,8,9,10,11,12,13,14,15,16,17,18,19,20,21,22,23,24,25},
	{1,2,3,5,7,8,9,10,11,13,14,15,16,17,18,19,20,21,23,24,25},
	{1,2,3,4,5,6,7,9,10,12,14,16,17,19,20,21,22,23,24,25},
	{1,2,3,4,5,6,7,9,10,12,14,16,17,19,20,21,22,23,24,25},
	{1,2,3,4,5,6,7,9,10,12,14,16,17,19,20,21,22,23,24,25},
	{1,2,3,4,5,7,10,12,14,16,17,19,20,21,22,23,24,25},
	{1,2,3,4,5,6,7,8,9,10,11,12,13,14,15,16,17,18,19,20,21,22,23,24,25},
	{1,2,3,4,5,6,7,8,9,10,11,12,13,14,15,16,17,18,19,20,21,22,23,24,25},
	{1,2,3,4,5,6,7,8,9,10,11,12,13,14,15,16,17,18,20,21,22,24,25},
	{1,2,3,4,5,6,7,9,10,12,14,16,17,19,20,21,22,23,24,25},
	{}];

POTENTIAL_ACT = [{2,3,4,5,6,7,8,9,10,11,12,13,14,15,16,17,18,19,20,21},
	{2,3,4,5,6,7,8,9,10,11,12,13,14,15,16,17,18,19,20,21},
	{2,3,4,5,6,7,8,9,10,11,12,13,14,15,16,17,18,19,20,21},
	{2,3,4,6,7,8,9,10,11,12,14,15,16,17,18,19,20,21},
	{2,3,4,5,6,7,8,9,10,11,12,13,14,15,16,17,18,19,20,21},
	{2,3,4,6,7,8,9,10,11,12,14,15,16,18,19,20,21},
	{2,3,4,5,6,7,8,9,10,11,12,13,14,15,16,17,18,19,20,21},
	{3,4,5,6,8,9,10,11,12,13,18,19,20},
	{2,3,4,5,6,7,8,9,10,11,12,13,14,15,16,18,19,20,21},
	{2,3,4,5,6,7,8,9,10,11,12,13,14,15,16,17,18,19,20,21},
	{3,4,5,6,8,9,10,11,12,13,18,19,20},
	{2,3,4,6,7,8,9,10,11,12,14,15,16,17,18,19,20,21},
	{3,4,5,6,8,9,10,11,12,13,18,19,20},
	{2,3,4,5,6,7,8,9,10,11,12,13,14,15,16,17,18,19,20,21},
	{3,4,5,6,8,9,10,11,12,13,18,19,20},
	{2,3,4,5,6,7,8,9,10,11,12,13,14,15,16,17,18,19,20,21},
	{2,3,4,5,6,7,8,9,10,11,12,13,14,15,16,17,18,19,20,21},
	{3,4,5,6,8,9,10,11,12,13,18,19,20},
	{2,3,4,5,7,8,9,10,11,12,13,14,15,16,17,18,19,21},
	{2,3,4,5,6,7,8,9,10,11,12,13,14,15,16,17,18,19,20,21},
	{2,3,4,5,6,7,8,9,10,11,12,13,14,15,16,17,18,19,20,21},
	{2,3,4,6,7,8,9,11,12,14,15,16,17,18,19,20,21},
	{2,3,4,5,7,8,9,10,11,12,13,14,15,16,17,18,19,21},
	{2,3,4,5,6,7,8,9,10,11,12,13,14,15,16,17,18,19,20,21},
	{2,3,4,5,6,7,8,9,10,11,12,13,14,15,16,17,18,19,20,21}];
